c n orig vars 91
p cnf 186 338
-131 0
92 -32 0
92 -31 0
92 -30 0
92 -128 0
-92 32 31 30 128 0
-93 19 0
-93 33 0
93 -19 -33 0
-94 15 0
-94 33 0
94 -15 -33 0
-95 100 0
-95 101 0
95 -100 -101 0
96 -66 0
96 -60 0
96 -117 0
96 -97 0
-96 66 60 117 97 0
-97 4 0
-97 124 0
97 -4 -124 0
-98 53 0
-98 52 0
-98 184 0
98 -53 -52 -184 0
99 -42 0
99 -43 0
-99 42 43 0
100 -161 0
100 -89 0
-100 161 89 0
101 -88 0
101 -89 0
101 -176 0
-101 88 89 176 0
102 -179 0
102 -178 0
-102 179 178 0
103 -181 0
103 -180 0
-103 181 180 0
-104 186 0
-104 185 0
104 -186 -185 0
-105 110 0
-105 109 0
105 -110 -109 0
-106 103 0
-106 102 0
106 -103 -102 0
107 -135 0
107 -134 0
107 -133 0
-107 135 134 133 0
108 -106 0
108 -105 0
108 -104 0
-108 106 105 104 0
-109 125 0
-109 126 0
109 -125 -126 0
110 -183 0
110 -182 0
-110 183 182 0
111 -6 0
111 -5 0
-111 6 5 0
-112 111 0
-112 3 0
112 -111 -3 0
113 -10 0
113 -9 0
-113 10 9 0
114 -8 0
114 -7 0
-114 8 7 0
-115 88 0
-115 89 0
115 -88 -89 0
-116 4 0
-116 118 0
116 -4 -118 0
117 -153 0
117 -55 0
117 -54 0
-117 153 55 54 0
118 -66 0
118 -60 0
118 -55 0
118 -54 0
118 -158 0
-118 66 60 55 54 158 0
-119 142 0
-119 143 0
119 -142 -143 0
120 -82 0
120 -119 0
-120 82 119 0
-121 4 0
-121 122 0
121 -4 -122 0
122 -118 0
122 -117 0
-122 118 117 0
123 -2 0
123 -1 0
123 -86 0
123 -87 0
123 -116 0
123 -115 0
-123 2 1 86 87 116 115 0
124 -95 0
124 -86 0
124 -87 0
124 -2 0
124 -1 0
-124 95 86 87 2 1 0
125 -129 0
125 -80 0
125 -64 0
-125 129 80 64 0
126 -123 0
126 -124 0
126 -121 0
-126 123 124 121 0
127 -99 0
127 -48 0
127 -49 0
-127 99 48 49 0
-128 34 0
-128 33 0
128 -34 -33 0
-129 130 0
-129 112 0
129 -130 -112 0
130 -14 0
130 -21 0
130 -175 0
-130 14 21 175 0
131 -108 0
131 -107 0
-131 108 107 0
132 -139 0
132 -138 0
132 -68 0
-132 139 138 68 0
-133 137 0
-133 98 0
133 -137 -98 0
-134 110 0
-134 160 0
134 -110 -160 0
-135 103 0
-135 132 0
135 -103 -132 0
136 -81 0
136 -72 0
136 -164 0
-136 81 72 164 0
137 -79 0
137 -114 0
137 -75 0
137 -166 0
137 -167 0
137 -69 0
-137 79 114 75 166 167 69 0
-138 141 0
-138 140 0
138 -141 -140 0
-139 137 0
-139 136 0
139 -137 -136 0
140 -74 0
140 -73 0
140 -165 0
-140 74 73 165 0
141 -78 0
141 -118 0
-141 78 118 0
142 -83 0
142 -84 0
-142 83 84 0
143 -85 0
143 -90 0
-143 85 90 0
-144 186 0
-144 147 0
144 -186 -147 0
-145 149 0
-145 150 0
145 -149 -150 0
146 -144 0
146 -145 0
-146 144 145 0
147 -77 0
147 -76 0
147 -113 0
-147 77 76 113 0
148 -167 0
148 -166 0
-148 167 166 0
149 -75 0
149 -123 0
-149 75 123 0
150 -74 0
150 -73 0
150 -72 0
150 -81 0
150 -80 0
150 -64 0
-150 74 73 72 81 80 64 0
-151 89 0
-151 63 0
151 -89 -63 0
152 -154 0
152 -57 0
-152 154 57 0
-153 152 0
-153 155 0
153 -152 -155 0
154 -56 0
154 -120 0
-154 56 120 0
155 -161 0
155 -89 0
-155 161 89 0
156 -29 0
156 -24 0
156 -23 0
156 -93 0
-156 29 24 23 93 0
-157 26 0
-157 33 0
157 -26 -33 0
-158 89 0
-158 57 0
158 -89 -57 0
-159 61 0
-159 33 0
159 -61 -33 0
-160 125 0
-160 96 0
160 -125 -96 0
161 -16 0
161 -120 0
-161 16 120 0
162 -71 0
162 -59 0
162 -58 0
162 -159 0
-162 71 59 58 159 0
163 -157 0
163 -156 0
-163 157 156 0
164 -66 0
164 -67 0
-164 66 67 0
165 -147 0
165 -178 0
-165 147 178 0
166 -20 0
166 -17 0
166 -18 0
166 -94 0
-166 20 17 18 94 0
-167 25 0
-167 33 0
167 -25 -33 0
-168 162 0
-168 163 0
168 -162 -163 0
-169 92 0
-169 148 0
169 -92 -148 0
170 -28 0
170 -27 0
-170 28 27 0
171 -168 0
171 -169 0
171 -70 0
-171 168 169 70 0
-172 12 0
-172 11 0
172 -12 -11 0
173 -120 0
173 -172 0
-173 120 172 0
-174 22 0
-174 63 0
174 -22 -63 0
175 -174 0
175 -173 0
-175 174 173 0
176 -13 0
176 -120 0
-176 13 120 0
177 -50 0
177 -51 0
-177 50 51 0
-178 170 0
-178 171 0
178 -170 -171 0
179 -144 0
179 -145 0
179 -146 0
179 -91 0
-179 144 145 146 91 0
180 -36 0
180 -35 0
180 -38 0
180 -37 0
180 -177 0
180 -127 0
-180 36 35 38 37 177 127 0
181 -40 0
181 -183 0
-181 40 183 0
182 -151 0
182 -65 0
182 -62 0
-182 151 65 62 0
-183 46 0
-183 47 0
183 -46 -47 0
184 -44 0
184 -45 0
-184 44 45 0
-185 39 0
-185 41 0
-185 184 0
185 -39 -41 -184 0
186 -114 0
186 -79 0
186 -78 0
186 -148 0
-186 114 79 78 148 0
